NAME          
ROWS
 N  OBJ
 L  c1_1
 L  c2_1
 L  c3
 L  c4
 L  c5
 G  c1
 G  c2
COLUMNS
    ss[1]     c1        1
    ss[1]     OBJ       1000
    ss[2]     c2        1
    ss[2]     OBJ       1000
    s[1]      c1_1      1
    s[1]      OBJ       -1000
    s[2]      c2_1      1
    s[2]      OBJ       -1000
    s[3]      c3        1
    s[3]      OBJ       -1000
    s[4]      c4        1
    s[4]      OBJ       -1000
    s[5]      c5        1
    s[5]      OBJ       -1000
    MARKER    'MARKER'                 'INTORG'
    x[1]      c1_1      523
    x[1]      c2_1      524
    x[1]      c3        441
    x[1]      c4        959
    x[1]      c5        1000
    x[1]      c1        556
    x[1]      c2        413
    x[1]      OBJ       -1146
    x[2]      c1_1      940
    x[2]      c2_1      304
    x[2]      c3        777
    x[2]      c4        912
    x[2]      c5        430
    x[2]      c1        125
    x[2]      c2        794
    x[2]      OBJ       -1084
    x[3]      c1_1      933
    x[3]      c2_1      525
    x[3]      c3        73
    x[3]      c4        469
    x[3]      c5        888
    x[3]      c1        736
    x[3]      c2        494
    x[3]      OBJ       -950
    x[4]      c1_1      411
    x[4]      c2_1      400
    x[4]      c3        948
    x[4]      c4        37
    x[4]      c5        258
    x[4]      c1        557
    x[4]      c2        821
    x[4]      OBJ       -274
    x[5]      c1_1      125
    x[5]      c2_1      928
    x[5]      c3        126
    x[5]      c4        671
    x[5]      c5        727
    x[5]      c1        301
    x[5]      c2        348
    x[5]      OBJ       -1021
    x[6]      c1_1      834
    x[6]      c2_1      370
    x[6]      c3        873
    x[6]      c4        16
    x[6]      c5        557
    x[6]      c1        6
    x[6]      c2        961
    x[6]      OBJ       -1007
    x[7]      c1_1      298
    x[7]      c2_1      589
    x[7]      c3        984
    x[7]      c4        465
    x[7]      c5        270
    x[7]      c1        111
    x[7]      c2        63
    x[7]      OBJ       -1277
    x[8]      c1_1      671
    x[8]      c2_1      986
    x[8]      c3        192
    x[8]      c4        366
    x[8]      c5        509
    x[8]      c1        16
    x[8]      c2        962
    x[8]      OBJ       -952
    x[9]      c1_1      664
    x[9]      c2_1      933
    x[9]      c3        590
    x[9]      c4        172
    x[9]      c5        493
    x[9]      c1        704
    x[9]      c2        799
    x[9]      OBJ       -698
    x[10]     c1_1      901
    x[10]     c2_1      168
    x[10]     c3        139
    x[10]     c4        940
    x[10]     c5        538
    x[10]     c1        952
    x[10]     c2        242
    x[10]     OBJ       -887
    x[11]     c1_1      236
    x[11]     c2_1      661
    x[11]     c3        260
    x[11]     c4        636
    x[11]     c5        178
    x[11]     c1        408
    x[11]     c2        352
    x[11]     OBJ       -984
    x[12]     c1_1      382
    x[12]     c2_1      28
    x[12]     c3        494
    x[12]     c4        467
    x[12]     c5        468
    x[12]     c1        492
    x[12]     c2        337
    x[12]     OBJ       -624
    x[13]     c1_1      381
    x[13]     c2_1      349
    x[13]     c3        352
    x[13]     c4        250
    x[13]     c5        266
    x[13]     c1        163
    x[13]     c2        111
    x[13]     OBJ       -1144
    x[14]     c1_1      789
    x[14]     c2_1      864
    x[14]     c3        215
    x[14]     c4        120
    x[14]     c5        104
    x[14]     c1        938
    x[14]     c2        559
    x[14]     OBJ       -544
    x[15]     c1_1      613
    x[15]     c2_1      305
    x[15]     c3        786
    x[15]     c4        678
    x[15]     c5        848
    x[15]     c1        315
    x[15]     c2        889
    x[15]     OBJ       -881
    x[16]     c1_1      954
    x[16]     c2_1      74
    x[16]     c3        264
    x[16]     c4        210
    x[16]     c5        850
    x[16]     c1        949
    x[16]     c2        595
    x[16]     OBJ       -564
    x[17]     c1_1      637
    x[17]     c2_1      692
    x[17]     c3        486
    x[17]     c4        328
    x[17]     c5        931
    x[17]     c1        670
    x[17]     c2        914
    x[17]     OBJ       -450
    x[18]     c1_1      438
    x[18]     c2_1      502
    x[18]     c3        318
    x[18]     c4        910
    x[18]     c5        477
    x[18]     c1        1000
    x[18]     c2        576
    x[18]     OBJ       -301
    x[19]     c1_1      911
    x[19]     c2_1      177
    x[19]     c3        489
    x[19]     c4        529
    x[19]     c5        528
    x[19]     c1        457
    x[19]     c2        312
    x[19]     OBJ       -770
    x[20]     c1_1      459
    x[20]     c2_1      461
    x[20]     c3        266
    x[20]     c4        620
    x[20]     c5        525
    x[20]     c1        816
    x[20]     c2        323
    x[20]     OBJ       -447
    x[21]     c1_1      630
    x[21]     c2_1      752
    x[21]     c3        668
    x[21]     c4        1
    x[21]     c5        882
    x[21]     c1        357
    x[21]     c2        153
    x[21]     OBJ       -1020
    x[22]     c1_1      722
    x[22]     c2_1      562
    x[22]     c3        263
    x[22]     c4        18
    x[22]     c5        287
    x[22]     c1        495
    x[22]     c2        888
    x[22]     OBJ       -549
    x[23]     c1_1      929
    x[23]     c2_1      708
    x[23]     c3        489
    x[23]     c4        284
    x[23]     c5        200
    x[23]     c1        916
    x[23]     c2        287
    x[23]     OBJ       -496
    x[24]     c1_1      225
    x[24]     c2_1      733
    x[24]     c3        11
    x[24]     c4        940
    x[24]     c5        93
    x[24]     c1        852
    x[24]     c2        627
    x[24]     OBJ       -614
    x[25]     c1_1      463
    x[25]     c2_1      956
    x[25]     c3        139
    x[25]     c4        931
    x[25]     c5        697
    x[25]     c1        614
    x[25]     c2        888
    x[25]     OBJ       -802
    x[26]     c1_1      702
    x[26]     c2_1      858
    x[26]     c3        301
    x[26]     c4        8
    x[26]     c5        974
    x[26]     c1        161
    x[26]     c2        634
    x[26]     OBJ       -1201
    x[27]     c1_1      870
    x[27]     c2_1      535
    x[27]     c3        37
    x[27]     c4        121
    x[27]     c5        498
    x[27]     c1        60
    x[27]     c2        424
    x[27]     OBJ       -940
    x[28]     c1_1      787
    x[28]     c2_1      848
    x[28]     c3        132
    x[28]     c4        10
    x[28]     c5        20
    x[28]     c1        382
    x[28]     c2        365
    x[28]     OBJ       -666
    x[29]     c1_1      577
    x[29]     c2_1      592
    x[29]     c3        831
    x[29]     c4        728
    x[29]     c5        490
    x[29]     c1        373
    x[29]     c2        374
    x[29]     OBJ       -1080
    x[30]     c1_1      119
    x[30]     c2_1      701
    x[30]     c3        738
    x[30]     c4        790
    x[30]     c5        969
    x[30]     c1        570
    x[30]     c2        85
    x[30]     OBJ       -1056
    x[31]     c1_1      835
    x[31]     c2_1      219
    x[31]     c3        727
    x[31]     c4        171
    x[31]     c5        26
    x[31]     c1        182
    x[31]     c2        650
    x[31]     OBJ       -772
    x[32]     c1_1      795
    x[32]     c2_1      597
    x[32]     c3        459
    x[32]     c4        613
    x[32]     c5        578
    x[32]     c1        934
    x[32]     c2        265
    x[32]     OBJ       -656
    x[33]     c1_1      313
    x[33]     c2_1      774
    x[33]     c3        737
    x[33]     c4        200
    x[33]     c5        897
    x[33]     c1        129
    x[33]     c2        711
    x[33]     OBJ       -706
    x[34]     c1_1      938
    x[34]     c2_1      716
    x[34]     c3        818
    x[34]     c4        73
    x[34]     c5        130
    x[34]     c1        542
    x[34]     c2        204
    x[34]     OBJ       -1186
    x[35]     c1_1      239
    x[35]     c2_1      450
    x[35]     c3        304
    x[35]     c4        882
    x[35]     c5        198
    x[35]     c1        767
    x[35]     c2        816
    x[35]     OBJ       -407
    x[36]     c1_1      751
    x[36]     c2_1      871
    x[36]     c3        988
    x[36]     c4        138
    x[36]     c5        253
    x[36]     c1        964
    x[36]     c2        595
    x[36]     OBJ       -462
    x[37]     c1_1      736
    x[37]     c2_1      84
    x[37]     c3        702
    x[37]     c4        83
    x[37]     c5        916
    x[37]     c1        896
    x[37]     c2        111
    x[37]     OBJ       -786
    x[38]     c1_1      447
    x[38]     c2_1      881
    x[38]     c3        144
    x[38]     c4        969
    x[38]     c5        864
    x[38]     c1        350
    x[38]     c2        707
    x[38]     OBJ       -1122
    x[39]     c1_1      81
    x[39]     c2_1      239
    x[39]     c3        156
    x[39]     c4        105
    x[39]     c5        891
    x[39]     c1        178
    x[39]     c2        774
    x[39]     OBJ       -674
    x[40]     c1_1      984
    x[40]     c2_1      83
    x[40]     c3        180
    x[40]     c4        55
    x[40]     c5        714
    x[40]     c1        557
    x[40]     c2        138
    x[40]     OBJ       -890
    x[41]     c1_1      529
    x[41]     c2_1      285
    x[41]     c3        885
    x[41]     c4        335
    x[41]     c5        48
    x[41]     c1        975
    x[41]     c2        687
    x[41]     OBJ       -218
    x[42]     c1_1      683
    x[42]     c2_1      309
    x[42]     c3        289
    x[42]     c4        75
    x[42]     c5        497
    x[42]     c1        70
    x[42]     c2        131
    x[42]     OBJ       -863
    x[43]     c1_1      67
    x[43]     c2_1      713
    x[43]     c3        199
    x[43]     c4        46
    x[43]     c5        963
    x[43]     c1        226
    x[43]     c2        279
    x[43]     OBJ       -1009
    x[44]     c1_1      55
    x[44]     c2_1      16
    x[44]     c3        493
    x[44]     c4        909
    x[44]     c5        255
    x[44]     c1        356
    x[44]     c2        775
    x[44]     OBJ       -418
    x[45]     c1_1      21
    x[45]     c2_1      47
    x[45]     c3        657
    x[45]     c4        774
    x[45]     c5        370
    x[45]     c1        404
    x[45]     c2        191
    x[45]     OBJ       -1068
    x[46]     c1_1      192
    x[46]     c2_1      475
    x[46]     c3        234
    x[46]     c4        858
    x[46]     c5        84
    x[46]     c1        79
    x[46]     c2        217
    x[46]     OBJ       -778
    x[47]     c1_1      776
    x[47]     c2_1      541
    x[47]     c3        866
    x[47]     c4        863
    x[47]     c5        769
    x[47]     c1        833
    x[47]     c2        181
    x[47]     OBJ       -1022
    x[48]     c1_1      797
    x[48]     c2_1      592
    x[48]     c3        952
    x[48]     c4        665
    x[48]     c5        765
    x[48]     c1        616
    x[48]     c2        750
    x[48]     OBJ       -830
    x[49]     c1_1      248
    x[49]     c2_1      610
    x[49]     c3        50
    x[49]     c4        845
    x[49]     c5        656
    x[49]     c1        575
    x[49]     c2        890
    x[49]     OBJ       -493
    x[50]     c1_1      253
    x[50]     c2_1      165
    x[50]     c3        834
    x[50]     c4        812
    x[50]     c5        767
    x[50]     c1        987
    x[50]     c2        776
    x[50]     OBJ       -562
    x[51]     c1_1      405
    x[51]     c2_1      990
    x[51]     c3        891
    x[51]     c4        549
    x[51]     c5        16
    x[51]     c1        340
    x[51]     c2        484
    x[51]     OBJ       -841
    x[52]     c1_1      600
    x[52]     c2_1      378
    x[52]     c3        398
    x[52]     c4        338
    x[52]     c5        334
    x[52]     c1        794
    x[52]     c2        655
    x[52]     OBJ       -337
    x[53]     c1_1      706
    x[53]     c2_1      45
    x[53]     c3        604
    x[53]     c4        460
    x[53]     c5        749
    x[53]     c1        321
    x[53]     c2        662
    x[53]     OBJ       -678
    x[54]     c1_1      188
    x[54]     c2_1      642
    x[54]     c3        791
    x[54]     c4        214
    x[54]     c5        806
    x[54]     c1        337
    x[54]     c2        662
    x[54]     OBJ       -1066
    x[55]     c1_1      882
    x[55]     c2_1      870
    x[55]     c3        8
    x[55]     c4        42
    x[55]     c5        966
    x[55]     c1        580
    x[55]     c2        995
    x[55]     OBJ       -347
    x[56]     c1_1      28
    x[56]     c2_1      605
    x[56]     c3        917
    x[56]     c4        952
    x[56]     c5        378
    x[56]     c1        920
    x[56]     c2        248
    x[56]     OBJ       -823
    x[57]     c1_1      165
    x[57]     c2_1      856
    x[57]     c3        76
    x[57]     c4        152
    x[57]     c5        247
    x[57]     c1        425
    x[57]     c2        718
    x[57]     OBJ       -594
    x[58]     c1_1      912
    x[58]     c2_1      812
    x[58]     c3        266
    x[58]     c4        808
    x[58]     c5        126
    x[58]     c1        170
    x[58]     c2        321
    x[58]     OBJ       -1339
    x[59]     c1_1      368
    x[59]     c2_1      833
    x[59]     c3        233
    x[59]     c4        169
    x[59]     c5        860
    x[59]     c1        955
    x[59]     c2        533
    x[59]     OBJ       -554
    x[60]     c1_1      896
    x[60]     c2_1      837
    x[60]     c3        322
    x[60]     c4        161
    x[60]     c5        601
    x[60]     c1        581
    x[60]     c2        391
    x[60]     OBJ       -804
    x[61]     c1_1      825
    x[61]     c2_1      512
    x[61]     c3        830
    x[61]     c4        162
    x[61]     c5        545
    x[61]     c1        739
    x[61]     c2        81
    x[61]     OBJ       -877
    x[62]     c1_1      235
    x[62]     c2_1      83
    x[62]     c3        370
    x[62]     c4        446
    x[62]     c5        5
    x[62]     c1        622
    x[62]     c2        253
    x[62]     OBJ       -681
    x[63]     c1_1      72
    x[63]     c2_1      54
    x[63]     c3        248
    x[63]     c4        162
    x[63]     c5        163
    x[63]     c1        473
    x[63]     c2        879
    x[63]     OBJ       -42
    x[64]     c1_1      739
    x[64]     c2_1      998
    x[64]     c3        579
    x[64]     c4        514
    x[64]     c5        487
    x[64]     c1        789
    x[64]     c2        540
    x[64]     OBJ       -581
    x[65]     c1_1      873
    x[65]     c2_1      743
    x[65]     c3        120
    x[65]     c4        502
    x[65]     c5        447
    x[65]     c1        946
    x[65]     c2        959
    x[65]     OBJ       -436
    x[66]     c1_1      169
    x[66]     c2_1      668
    x[66]     c3        976
    x[66]     c4        507
    x[66]     c5        889
    x[66]     c1        499
    x[66]     c2        118
    x[66]     OBJ       -1247
    x[67]     c1_1      408
    x[67]     c2_1      748
    x[67]     c3        554
    x[67]     c4        578
    x[67]     c5        910
    x[67]     c1        666
    x[67]     c2        989
    x[67]     OBJ       -656
    x[68]     c1_1      986
    x[68]     c2_1      809
    x[68]     c3        890
    x[68]     c4        655
    x[68]     c5        771
    x[68]     c1        546
    x[68]     c2        781
    x[68]     OBJ       -1020
    x[69]     c1_1      474
    x[69]     c2_1      704
    x[69]     c3        364
    x[69]     c4        963
    x[69]     c5        485
    x[69]     c1        630
    x[69]     c2        678
    x[69]     OBJ       -864
    x[70]     c1_1      838
    x[70]     c2_1      630
    x[70]     c3        488
    x[70]     c4        29
    x[70]     c5        626
    x[70]     c1        997
    x[70]     c2        787
    x[70]     OBJ       -447
    x[71]     c1_1      108
    x[71]     c2_1      414
    x[71]     c3        435
    x[71]     c4        356
    x[71]     c5        65
    x[71]     c1        462
    x[71]     c2        424
    x[71]     OBJ       -469
    x[72]     c1_1      331
    x[72]     c2_1      25
    x[72]     c3        704
    x[72]     c4        939
    x[72]     c5        958
    x[72]     c1        750
    x[72]     c2        721
    x[72]     OBJ       -762
    x[73]     c1_1      361
    x[73]     c2_1      723
    x[73]     c3        56
    x[73]     c4        605
    x[73]     c5        893
    x[73]     c1        841
    x[73]     c2        623
    x[73]     OBJ       -648
    x[74]     c1_1      360
    x[74]     c2_1      10
    x[74]     c3        435
    x[74]     c4        217
    x[74]     c5        985
    x[74]     c1        795
    x[74]     c2        833
    x[74]     OBJ       -375
    x[75]     c1_1      790
    x[75]     c2_1      479
    x[75]     c3        891
    x[75]     c4        145
    x[75]     c5        156
    x[75]     c1        2
    x[75]     c2        986
    x[75]     OBJ       -903
    x[76]     c1_1      206
    x[76]     c2_1      923
    x[76]     c3        776
    x[76]     c4        670
    x[76]     c5        892
    x[76]     c1        522
    x[76]     c2        141
    x[76]     OBJ       -935
    x[77]     c1_1      258
    x[77]     c2_1      156
    x[77]     c3        5
    x[77]     c4        604
    x[77]     c5        253
    x[77]     c1        778
    x[77]     c2        66
    x[77]     OBJ       -584
    x[78]     c1_1      331
    x[78]     c2_1      505
    x[78]     c3        804
    x[78]     c4        821
    x[78]     c5        661
    x[78]     c1        42
    x[78]     c2        983
    x[78]     OBJ       -688
    x[79]     c1_1      117
    x[79]     c2_1      844
    x[79]     c3        858
    x[79]     c4        121
    x[79]     c5        720
    x[79]     c1        714
    x[79]     c2        449
    x[79]     OBJ       -860
    x[80]     c1_1      208
    x[80]     c2_1      897
    x[80]     c3        198
    x[80]     c4        434
    x[80]     c5        988
    x[80]     c1        645
    x[80]     c2        654
    x[80]     OBJ       -517
    x[81]     c1_1      865
    x[81]     c2_1      483
    x[81]     c3        993
    x[81]     c4        818
    x[81]     c5        588
    x[81]     c1        855
    x[81]     c2        458
    x[81]     OBJ       -795
    x[82]     c1_1      521
    x[82]     c2_1      611
    x[82]     c3        344
    x[82]     c4        720
    x[82]     c5        474
    x[82]     c1        396
    x[82]     c2        675
    x[82]     OBJ       -806
    x[83]     c1_1      214
    x[83]     c2_1      956
    x[83]     c3        124
    x[83]     c4        711
    x[83]     c5        518
    x[83]     c1        768
    x[83]     c2        515
    x[83]     OBJ       -774
    x[84]     c1_1      607
    x[84]     c2_1      590
    x[84]     c3        955
    x[84]     c4        804
    x[84]     c5        878
    x[84]     c1        392
    x[84]     c2        718
    x[84]     OBJ       -832
    x[85]     c1_1      625
    x[85]     c2_1      452
    x[85]     c3        885
    x[85]     c4        615
    x[85]     c5        705
    x[85]     c1        141
    x[85]     c2        486
    x[85]     OBJ       -888
    x[86]     c1_1      126
    x[86]     c2_1      323
    x[86]     c3        884
    x[86]     c4        745
    x[86]     c5        664
    x[86]     c1        544
    x[86]     c2        881
    x[86]     OBJ       -775
    x[87]     c1_1      549
    x[87]     c2_1      328
    x[87]     c3        565
    x[87]     c4        134
    x[87]     c5        818
    x[87]     c1        847
    x[87]     c2        726
    x[87]     OBJ       -299
    x[88]     c1_1      429
    x[88]     c2_1      199
    x[88]     c3        42
    x[88]     c4        835
    x[88]     c5        793
    x[88]     c1        263
    x[88]     c2        386
    x[88]     OBJ       -1132
    x[89]     c1_1      541
    x[89]     c2_1      501
    x[89]     c3        94
    x[89]     c4        205
    x[89]     c5        154
    x[89]     c1        325
    x[89]     c2        796
    x[89]     OBJ       -448
    x[90]     c1_1      636
    x[90]     c2_1      883
    x[90]     c3        558
    x[90]     c4        946
    x[90]     c5        676
    x[90]     c1        227
    x[90]     c2        229
    x[90]     OBJ       -1419
    x[91]     c1_1      26
    x[91]     c2_1      81
    x[91]     c3        19
    x[91]     c4        894
    x[91]     c5        170
    x[91]     c1        765
    x[91]     c2        398
    x[91]     OBJ       -490
    x[92]     c1_1      366
    x[92]     c2_1      14
    x[92]     c3        328
    x[92]     c4        385
    x[92]     c5        963
    x[92]     c1        128
    x[92]     c2        335
    x[92]     OBJ       -1141
    x[93]     c1_1      194
    x[93]     c2_1      953
    x[93]     c3        77
    x[93]     c4        491
    x[93]     c5        165
    x[93]     c1        10
    x[93]     c2        624
    x[93]     OBJ       -665
    x[94]     c1_1      476
    x[94]     c2_1      88
    x[94]     c3        564
    x[94]     c4        915
    x[94]     c5        25
    x[94]     c1        973
    x[94]     c2        283
    x[94]     OBJ       -362
    x[95]     c1_1      956
    x[95]     c2_1      134
    x[95]     c3        54
    x[95]     c4        956
    x[95]     c5        742
    x[95]     c1        162
    x[95]     c2        182
    x[95]     OBJ       -1131
    x[96]     c1_1      568
    x[96]     c2_1      573
    x[96]     c3        749
    x[96]     c4        204
    x[96]     c5        661
    x[96]     c1        743
    x[96]     c2        589
    x[96]     OBJ       -649
    x[97]     c1_1      520
    x[97]     c2_1      887
    x[97]     c3        597
    x[97]     c4        449
    x[97]     c5        689
    x[97]     c1        208
    x[97]     c2        153
    x[97]     OBJ       -1225
    x[98]     c1_1      159
    x[98]     c2_1      326
    x[98]     c3        973
    x[98]     c4        862
    x[98]     c5        429
    x[98]     c1        223
    x[98]     c2        945
    x[98]     OBJ       -580
    x[99]     c1_1      879
    x[99]     c2_1      491
    x[99]     c3        633
    x[99]     c4        596
    x[99]     c5        703
    x[99]     c1        981
    x[99]     c2        272
    x[99]     OBJ       -804
    x[100]    c1_1      404
    x[100]    c2_1      269
    x[100]    c3        469
    x[100]    c4        460
    x[100]    c5        964
    x[100]    c1        143
    x[100]    c2        849
    x[100]    OBJ       -973
RHS
    rhs       c1_1      12841
    rhs       c2_1      13172
    rhs       c3        12088
    rhs       c4        12269
    rhs       c5        13839
    rhs       c1        13162
    rhs       c2        13388
RANGES
BOUNDS
 LO bounds    ss[1]     0
 PL bounds    ss[1]
 LO bounds    ss[2]     0
 PL bounds    ss[2]
 MI bounds    s[1]
 UP bounds    s[1]      0
 MI bounds    s[2]
 UP bounds    s[2]      0
 MI bounds    s[3]
 UP bounds    s[3]      0
 MI bounds    s[4]
 UP bounds    s[4]      0
 MI bounds    s[5]
 UP bounds    s[5]      0
 BV bounds    x[1]
 BV bounds    x[2]
 BV bounds    x[3]
 BV bounds    x[4]
 BV bounds    x[5]
 BV bounds    x[6]
 BV bounds    x[7]
 BV bounds    x[8]
 BV bounds    x[9]
 BV bounds    x[10]
 BV bounds    x[11]
 BV bounds    x[12]
 BV bounds    x[13]
 BV bounds    x[14]
 BV bounds    x[15]
 BV bounds    x[16]
 BV bounds    x[17]
 BV bounds    x[18]
 BV bounds    x[19]
 BV bounds    x[20]
 BV bounds    x[21]
 BV bounds    x[22]
 BV bounds    x[23]
 BV bounds    x[24]
 BV bounds    x[25]
 BV bounds    x[26]
 BV bounds    x[27]
 BV bounds    x[28]
 BV bounds    x[29]
 BV bounds    x[30]
 BV bounds    x[31]
 BV bounds    x[32]
 BV bounds    x[33]
 BV bounds    x[34]
 BV bounds    x[35]
 BV bounds    x[36]
 BV bounds    x[37]
 BV bounds    x[38]
 BV bounds    x[39]
 BV bounds    x[40]
 BV bounds    x[41]
 BV bounds    x[42]
 BV bounds    x[43]
 BV bounds    x[44]
 BV bounds    x[45]
 BV bounds    x[46]
 BV bounds    x[47]
 BV bounds    x[48]
 BV bounds    x[49]
 BV bounds    x[50]
 BV bounds    x[51]
 BV bounds    x[52]
 BV bounds    x[53]
 BV bounds    x[54]
 BV bounds    x[55]
 BV bounds    x[56]
 BV bounds    x[57]
 BV bounds    x[58]
 BV bounds    x[59]
 BV bounds    x[60]
 BV bounds    x[61]
 BV bounds    x[62]
 BV bounds    x[63]
 BV bounds    x[64]
 BV bounds    x[65]
 BV bounds    x[66]
 BV bounds    x[67]
 BV bounds    x[68]
 BV bounds    x[69]
 BV bounds    x[70]
 BV bounds    x[71]
 BV bounds    x[72]
 BV bounds    x[73]
 BV bounds    x[74]
 BV bounds    x[75]
 BV bounds    x[76]
 BV bounds    x[77]
 BV bounds    x[78]
 BV bounds    x[79]
 BV bounds    x[80]
 BV bounds    x[81]
 BV bounds    x[82]
 BV bounds    x[83]
 BV bounds    x[84]
 BV bounds    x[85]
 BV bounds    x[86]
 BV bounds    x[87]
 BV bounds    x[88]
 BV bounds    x[89]
 BV bounds    x[90]
 BV bounds    x[91]
 BV bounds    x[92]
 BV bounds    x[93]
 BV bounds    x[94]
 BV bounds    x[95]
 BV bounds    x[96]
 BV bounds    x[97]
 BV bounds    x[98]
 BV bounds    x[99]
 BV bounds    x[100]
ENDATA
